
%FILE DATA:	Soccer Computational Problem for MiniZinc Models	%
%AUTHOR:	Jack Wall	%
%CONTACT:  	116397063@umail.ucc.ie			%
%LAST UPDATE:	03/19/2020, 13:39:23						%
%DESCRIPTION: 	180 games played with 30 games left				%


n=15; %number of teams

%Games to play
games=[|8,14|14,15|10,1|8,10|5,12|8,15|9,11|8,12|11,13|15,10|2,4|5,15|1,10|1,6|15,11|7,3|3,15|11,8|3,10|11,6|4,12|4,6|13,11|1,3|5,2|3,8|5,11|15,3|5,4|14,3|];

%Initial points
iPoints=[43,40,30,20,25,30,38,38,24,42,23,27,35,36,31];

%POSITION CONSTRAINTS
% [|teamID, operator, position|...]
% operators index:
%  1 for =  operator
%  2 for >  operator
%  3 for >= operator
%  4 for <  operator
%  5 for <= operator
positionConstraints=[|10,3,1|8,5,2|1,3,3|2,1,4|];